aceites=5;
vegetales=2;
noVegetales=3; 
        tabla =[| 110,120,130,110,115
                | 130,130,110,90,115 
                | 110,140,130,100,95 
                | 120,110,120,120,125
                | 100,120,150,110,105
                | 90,100,140,80,135  
                | 95,120,130,85,130  
                | 110,130,150,100,125
                | 100,110,130,110,115
                | 130,140,140,100,13 
                | 100,110,120,90,100 
                | 120,100,110,120,125|];
                  
                
               

Valor=150;

MaxV=200;
MaxN=250;

Mcap=1000;
CA=5;

MinD=3;
MaxD=6;

durezas=[4,6,2,4,5];

MinB=100000;

almacenInicial=[500,500,500,500,500];